13
-1 190 302 165 339 284 247 407 281 182 276 123 497 
190 -1 175 207 206 268 134 320 454 265 413 173 437 
302 175 -1 376 36 443 54 149 584 430 566 337 272 
165 207 376 -1 410 120 328 512 292 62 220 46 620 
339 206 36 410 -1 472 91 131 621 465 602 371 256 
284 268 443 120 472 -1 402 589 370 142 272 160 704 
247 134 54 328 91 402 -1 186 529 379 512 287 303 
407 320 149 512 131 589 186 -1 682 560 683 469 124 
281 454 584 292 621 370 529 682 -1 237 115 297 756 
182 265 430 62 465 142 379 560 237 -1 158 93 663 
276 413 566 220 602 272 512 683 115 158 -1 241 772 
123 173 337 46 371 160 287 469 297 93 241 -1 575 
497 437 272 620 256 704 303 124 756 663 772 575 -1 
